NAME : cgl_48b.4271.tour
COMMENT : Length = 4271
COMMENT : Found by LKH-3 [Keld Helsgaun] Fri Nov  8 17:38:19 2024
TYPE : TOUR
DIMENSION : 49
TOUR_SECTION
19
18
17
16
14
15
11
10
9
1
2
3
8
4
7
6
5
34
33
39
36
40
35
38
37
49
27
26
42
41
31
32
43
45
44
46
30
29
47
48
28
25
13
12
22
24
23
20
21
-1
EOF
